evm/ejemplos_dzn/EthPriceMintModule_run_code_of_0_block_22_0_input.dzn
TERM = { '.', s0, s5, s6, s7, s8, s9};
null = '.';
s = 6;
n = 5;
min = 6;
N0 = 1;
ZEROARYOP = { CALLDATASIZE_0 };
zeroout = [ s6 ];
zerogas = [ 2 ];
zerosz = [ 1 ];
zerolb = [ 1 ];
zeroub = [ 6 ];
N1 = 0;
UNARYOP = {};
unin =  [];
unout = [];
ungas = [];
unsz =  [];
unlb =  [];
unub =  [];
N2 = 0;
BINARYOP = {};
binin1 =  [];
binin2 =  [];
binout = [];
bincomm = [];
bingas = [];
binsz =  [];
binlb =  [];
binub =  [];
NA = 0;
ASSOCIATIVEADDOP = {};
naddin =  [];
addin =  [||];
addout = [];
addcomm = [];
addgas = [];
addsz =  [];
addlb =  [];
addub =  [];
NPUSH = 4;
PUSHOP = { 'PUSH [tag]_0', 'PUSH [tag]_1', 'PUSH [tag]_2', PUSH_0 };
pushout = [ s5, s7, s8, s9 ];
pushgas = [ 3, 3, 3, 3 ];
pushsz = [ 3, 3, 3, 2 ];
pushlb = [ 1, 1, 1, 1 ];
pushub = [ 6, 6, 6, 6 ];
NSTORE = 0;
STOROP = {};
storin1 =  [];
storin2 =  [];
storlb =  [];
storub =  [];
storgas = [];
storsz = [];
DUP_ENUM = { DUP1, DUP2, DUP3, DUP4};
SWAP_ENUM = { SWAP1, SWAP2, SWAP3, SWAP4};
startstack = [ s0, null, null, null, null ];
endstack = [ s5, s9, s6, s7, s8 ];
lib = true;
order_output = [| s6, s8, 2 | s9, s7, 2 | s5, s9, 1 |];;
m_dep_n = 0;
memory_dependences = [| |];
s_dep_n = 0;
store_dependences = [| |];
