evm/ejemplos_results/EthPriceMintModule_run_code_of_0_block_22_0_input.txt
value = 6;
fgas = [2, 3, 3, 2, 3, 3];
fsize = [1, 3, 3, 1, 2, 3];
states = 
[|  s0, '.', '.', '.', '.'
 | '.', '.', '.', '.', '.'
 |  s8, '.', '.', '.', '.'
 |  s7,  s8, '.', '.', '.'
 |  s6,  s7,  s8, '.', '.'
 |  s9,  s6,  s7,  s8, '.'
 |  s5,  s9,  s6,  s7,  s8
 |];
program = [POP, P('PUSH [tag]_2'), P('PUSH [tag]_1'), Z(CALLDATASIZE_0), P(PUSH_0), P('PUSH [tag]_0')];
% time elapsed: 0.88 s
----------
==========
% time elapsed: 0.88 s
% [value > 5]
